p cnf 392 688
9 10 38 51 52 0
9 10 38 51 -52 0
9 10 38 -51 52 0
9 10 38 -51 -52 0
19 39 44 53 54 0
19 39 44 53 -54 0
19 39 44 -53 54 0
19 39 44 -53 -54 0
2 19 -44 55 56 0
2 19 -44 55 -56 0
2 19 -44 -55 56 0
2 19 -44 -55 -56 0
2 19 38 57 58 0
2 19 38 57 -58 0
2 19 38 -57 58 0
2 19 38 -57 -58 0
2 -19 50 59 60 0
2 -19 50 59 -60 0
2 -19 50 -59 60 0
2 -19 50 -59 -60 0
2 9 -19 61 62 0
2 9 -19 61 -62 0
2 9 -19 -61 62 0
2 9 -19 -61 -62 0
-2 -10 38 63 64 0
-2 -10 38 63 -64 0
-2 -10 38 -63 64 0
-2 -10 38 -63 -64 0
11 29 32 65 66 0
11 29 32 65 -66 0
11 29 32 -65 66 0
11 29 32 -65 -66 0
-29 32 35 67 68 0
-29 32 35 67 -68 0
-29 32 35 -67 68 0
-29 32 35 -67 -68 0
-29 -35 -38 69 70 0
-29 -35 -38 69 -70 0
-29 -35 -38 -69 70 0
-29 -35 -38 -69 -70 0
-27 -35 -38 71 72 0
-27 -35 -38 71 -72 0
-27 -35 -38 -71 72 0
-27 -35 -38 -71 -72 0
11 -32 -38 73 74 0
11 -32 -38 73 -74 0
11 -32 -38 -73 74 0
11 -32 -38 -73 -74 0
9 -11 36 75 76 0
9 -11 36 75 -76 0
9 -11 36 -75 76 0
9 -11 36 -75 -76 0
-11 -36 41 77 78 0
-11 -36 41 77 -78 0
-11 -36 41 -77 78 0
-11 -36 41 -77 -78 0
21 -36 -41 79 80 0
21 -36 -41 79 -80 0
21 -36 -41 -79 80 0
21 -36 -41 -79 -80 0
9 -11 -21 81 82 0
9 -11 -21 81 -82 0
9 -11 -21 -81 82 0
9 -11 -21 -81 -82 0
-9 15 48 83 84 0
-9 15 48 83 -84 0
-9 15 48 -83 84 0
-9 15 48 -83 -84 0
4 15 -48 85 86 0
4 15 -48 85 -86 0
4 15 -48 -85 86 0
4 15 -48 -85 -86 0
-9 39 43 87 88 0
-9 39 43 87 -88 0
-9 39 43 -87 88 0
-9 39 43 -87 -88 0
11 39 -43 89 90 0
11 39 -43 89 -90 0
11 39 -43 -89 90 0
11 39 -43 -89 -90 0
-39 46 50 91 92 0
-39 46 50 91 -92 0
-39 46 50 -91 92 0
-39 46 50 -91 -92 0
4 -39 -50 93 94 0
4 -39 -50 93 -94 0
4 -39 -50 -93 94 0
4 -39 -50 -93 -94 0
11 -39 -46 95 96 0
11 -39 -46 95 -96 0
11 -39 -46 -95 96 0
11 -39 -46 -95 -96 0
4 -11 -15 97 98 0
4 -11 -15 97 -98 0
4 -11 -15 -97 98 0
4 -11 -15 -97 -98 0
-4 -16 49 99 100 0
-4 -16 49 99 -100 0
-4 -16 49 -99 100 0
-4 -16 49 -99 -100 0
-16 -40 49 101 102 0
-16 -40 49 101 -102 0
-16 -40 49 -101 102 0
-16 -40 49 -101 -102 0
-4 -16 -49 103 104 0
-4 -16 -49 103 -104 0
-4 -16 -49 -103 104 0
-4 -16 -49 -103 -104 0
16 23 30 105 106 0
16 23 30 105 -106 0
16 23 30 -105 106 0
16 23 30 -105 -106 0
-23 30 -45 107 108 0
-23 30 -45 107 -108 0
-23 30 -45 -107 108 0
-23 30 -45 -107 -108 0
-30 34 -45 109 110 0
-30 34 -45 109 -110 0
-30 34 -45 -109 110 0
-30 34 -45 -109 -110 0
16 -34 -45 111 112 0
16 -34 -45 111 -112 0
16 -34 -45 -111 112 0
16 -34 -45 -111 -112 0
-9 -34 -45 113 114 0
-9 -34 -45 113 -114 0
-9 -34 -45 -113 114 0
-9 -34 -45 -113 -114 0
-4 -8 16 115 116 0
-4 -8 16 115 -116 0
-4 -8 16 -115 116 0
-4 -8 16 -115 -116 0
17 31 45 117 118 0
17 31 45 117 -118 0
17 31 45 -117 118 0
17 31 45 -117 -118 0
17 -31 45 119 120 0
17 -31 45 119 -120 0
17 -31 45 -119 120 0
17 -31 45 -119 -120 0
6 26 50 121 122 0
6 26 50 121 -122 0
6 26 50 -121 122 0
6 26 50 -121 -122 0
6 -26 50 123 124 0
6 -26 50 123 -124 0
6 -26 50 -123 124 0
6 -26 50 -123 -124 0
5 -6 -17 125 126 0
5 -6 -17 125 -126 0
5 -6 -17 -125 126 0
5 -6 -17 -125 -126 0
-5 18 -38 127 128 0
-5 18 -38 127 -128 0
-5 18 -38 -127 128 0
-5 18 -38 -127 -128 0
-5 -18 45 129 130 0
-5 -18 45 129 -130 0
-5 -18 45 -129 130 0
-5 -18 45 -129 -130 0
-17 -38 -50 131 132 0
-17 -38 -50 131 -132 0
-17 -38 -50 -131 132 0
-17 -38 -50 -131 -132 0
16 -22 38 133 134 0
16 -22 38 133 -134 0
16 -22 38 -133 134 0
16 -22 38 -133 -134 0
-9 16 -22 135 136 0
-9 16 -22 135 -136 0
-9 16 -22 -135 136 0
-9 16 -22 -135 -136 0
1 -20 22 137 138 0
1 -20 22 137 -138 0
1 -20 22 -137 138 0
1 -20 22 -137 -138 0
10 -20 22 139 140 0
10 -20 22 139 -140 0
10 -20 22 -139 140 0
10 -20 22 -139 -140 0
-1 -20 22 141 142 0
-1 -20 22 141 -142 0
-1 -20 22 -141 142 0
-1 -20 22 -141 -142 0
8 -20 22 143 144 0
8 -20 22 143 -144 0
8 -20 22 -143 144 0
8 -20 22 -143 -144 0
20 38 39 145 146 0
20 38 39 145 -146 0
20 38 39 -145 146 0
20 38 39 -145 -146 0
30 -37 45 147 148 0
30 -37 45 147 -148 0
30 -37 45 -147 148 0
30 -37 45 -147 -148 0
-17 -37 -45 149 150 0
-17 -37 -45 149 -150 0
-17 -37 -45 -149 150 0
-17 -37 -45 -149 -150 0
-37 45 -46 151 152 0
-37 45 -46 151 -152 0
-37 45 -46 -151 152 0
-37 45 -46 -151 -152 0
-17 -30 -37 153 154 0
-17 -30 -37 153 -154 0
-17 -30 -37 -153 154 0
-17 -30 -37 -153 -154 0
37 -39 48 155 156 0
37 -39 48 155 -156 0
37 -39 48 -155 156 0
37 -39 48 -155 -156 0
20 28 43 157 158 0
20 28 43 157 -158 0
20 28 43 -157 158 0
20 28 43 -157 -158 0
20 43 -48 159 160 0
20 43 -48 159 -160 0
20 43 -48 -159 160 0
20 43 -48 -159 -160 0
8 36 -48 161 162 0
8 36 -48 161 -162 0
8 36 -48 -161 162 0
8 36 -48 -161 -162 0
10 36 -43 163 164 0
10 36 -43 163 -164 0
10 36 -43 -163 164 0
10 36 -43 -163 -164 0
-8 24 36 165 166 0
-8 24 36 165 -166 0
-8 24 36 -165 166 0
-8 24 36 -165 -166 0
-8 -24 -48 167 168 0
-8 -24 -48 167 -168 0
-8 -24 -48 -167 168 0
-8 -24 -48 -167 -168 0
-27 -36 37 169 170 0
-27 -36 37 169 -170 0
-27 -36 37 -169 170 0
-27 -36 37 -169 -170 0
10 -36 -43 171 172 0
10 -36 -43 171 -172 0
10 -36 -43 -171 172 0
10 -36 -43 -171 -172 0
27 30 -47 173 174 0
27 30 -47 173 -174 0
27 30 -47 -173 174 0
27 30 -47 -173 -174 0
12 27 -47 175 176 0
12 27 -47 175 -176 0
12 27 -47 -175 176 0
12 27 -47 -175 -176 0
18 34 -47 177 178 0
18 34 -47 177 -178 0
18 34 -47 -177 178 0
18 34 -47 -177 -178 0
18 27 -47 179 180 0
18 27 -47 179 -180 0
18 27 -47 -179 180 0
18 27 -47 -179 -180 0
-18 -30 -47 181 182 0
-18 -30 -47 181 -182 0
-18 -30 -47 -181 182 0
-18 -30 -47 -181 -182 0
-10 -46 47 183 184 0
-10 -46 47 183 -184 0
-10 -46 47 -183 184 0
-10 -46 47 -183 -184 0
35 -46 47 185 186 0
35 -46 47 185 -186 0
35 -46 47 -185 186 0
35 -46 47 -185 -186 0
-35 -46 -50 187 188 0
-35 -46 -50 187 -188 0
-35 -46 -50 -187 188 0
-35 -46 -50 -187 -188 0
13 -21 46 189 190 0
13 -21 46 189 -190 0
13 -21 46 -189 190 0
13 -21 46 -189 -190 0
5 -13 -21 191 192 0
5 -13 -21 191 -192 0
5 -13 -21 -191 192 0
5 -13 -21 -191 -192 0
-5 -21 46 193 194 0
-5 -21 46 193 -194 0
-5 -21 46 -193 194 0
-5 -21 46 -193 -194 0
-10 19 -35 195 196 0
-10 19 -35 195 -196 0
-10 19 -35 -195 196 0
-10 19 -35 -195 -196 0
-19 27 -35 197 198 0
-19 27 -35 197 -198 0
-19 27 -35 -197 198 0
-19 27 -35 -197 -198 0
25 32 47 199 200 0
25 32 47 199 -200 0
25 32 47 -199 200 0
25 32 47 -199 -200 0
-25 32 44 201 202 0
-25 32 44 201 -202 0
-25 32 44 -201 202 0
-25 32 44 -201 -202 0
21 -25 -44 203 204 0
21 -25 -44 203 -204 0
21 -25 -44 -203 204 0
21 -25 -44 -203 -204 0
18 21 32 205 206 0
18 21 32 205 -206 0
18 21 32 -205 206 0
18 21 32 -205 -206 0
18 46 50 207 208 0
18 46 50 207 -208 0
18 46 50 -207 208 0
18 46 50 -207 -208 0
-18 21 34 209 210 0
-18 21 34 209 -210 0
-18 21 34 -209 210 0
-18 21 34 -209 -210 0
-18 -34 50 211 212 0
-18 -34 50 211 -212 0
-18 -34 50 -211 212 0
-18 -34 50 -211 -212 0
24 26 -44 213 214 0
24 26 -44 213 -214 0
24 26 -44 -213 214 0
24 26 -44 -213 -214 0
24 -26 -50 215 216 0
24 -26 -50 215 -216 0
24 -26 -50 -215 216 0
24 -26 -50 -215 -216 0
35 -44 -50 217 218 0
35 -44 -50 217 -218 0
35 -44 -50 -217 218 0
35 -44 -50 -217 -218 0
-29 35 43 219 220 0
-29 35 43 219 -220 0
-29 35 43 -219 220 0
-29 35 43 -219 -220 0
-29 35 -43 221 222 0
-29 35 -43 221 -222 0
-29 35 -43 -221 222 0
-29 35 -43 -221 -222 0
29 -32 -41 223 224 0
29 -32 -41 223 -224 0
29 -32 -41 -223 224 0
29 -32 -41 -223 -224 0
-16 29 -41 225 226 0
-16 29 -41 225 -226 0
-16 29 -41 -225 226 0
-16 29 -41 -225 -226 0
-7 13 -32 227 228 0
-7 13 -32 227 -228 0
-7 13 -32 -227 228 0
-7 13 -32 -227 -228 0
-13 -32 37 229 230 0
-13 -32 37 229 -230 0
-13 -32 37 -229 230 0
-13 -32 37 -229 -230 0
-5 -13 37 231 232 0
-5 -13 37 231 -232 0
-5 -13 37 -231 232 0
-5 -13 37 -231 -232 0
-7 -32 -37 233 234 0
-7 -32 -37 233 -234 0
-7 -32 -37 -233 234 0
-7 -32 -37 -233 -234 0
28 41 44 235 236 0
28 41 44 235 -236 0
28 41 44 -235 236 0
28 41 44 -235 -236 0
8 15 20 237 238 0
8 15 20 237 -238 0
8 15 20 -237 238 0
8 15 20 -237 -238 0
7 8 -20 239 240 0
7 8 -20 239 -240 0
7 8 -20 -239 240 0
7 8 -20 -239 -240 0
7 -8 15 241 242 0
7 -8 15 241 -242 0
7 -8 15 -241 242 0
7 -8 15 -241 -242 0
-8 41 47 243 244 0
-8 41 47 243 -244 0
-8 41 47 -243 244 0
-8 41 47 -243 -244 0
-14 41 -47 245 246 0
-14 41 -47 245 -246 0
-14 41 -47 -245 246 0
-14 41 -47 -245 -246 0
-15 25 29 247 248 0
-15 25 29 247 -248 0
-15 25 29 -247 248 0
-15 25 29 -247 -248 0
7 -11 -28 249 250 0
7 -11 -28 249 -250 0
7 -11 -28 -249 250 0
7 -11 -28 -249 -250 0
5 6 11 251 252 0
5 6 11 251 -252 0
5 6 11 -251 252 0
5 6 11 -251 -252 0
5 -15 24 253 254 0
5 -15 24 253 -254 0
5 -15 24 -253 254 0
5 -15 24 -253 -254 0
5 -6 -24 255 256 0
5 -6 -24 255 -256 0
5 -6 -24 -255 256 0
5 -6 -24 -255 -256 0
14 -25 37 257 258 0
14 -25 37 257 -258 0
14 -25 37 -257 258 0
14 -25 37 -257 -258 0
14 -25 29 259 260 0
14 -25 29 259 -260 0
14 -25 29 -259 260 0
14 -25 29 -259 -260 0
14 -28 -29 261 262 0
14 -28 -29 261 -262 0
14 -28 -29 -261 262 0
14 -28 -29 -261 -262 0
-12 22 27 263 264 0
-12 22 27 263 -264 0
-12 22 27 -263 264 0
-12 22 27 -263 -264 0
-12 -22 -25 265 266 0
-12 -22 -25 265 -266 0
-12 -22 -25 -265 266 0
-12 -22 -25 -265 -266 0
-12 -14 -27 267 268 0
-12 -14 -27 267 -268 0
-12 -14 -27 -267 268 0
-12 -14 -27 -267 -268 0
-5 -14 -40 269 270 0
-5 -14 -40 269 -270 0
-5 -14 -40 -269 270 0
-5 -14 -40 -269 -270 0
9 40 -42 271 272 0
9 40 -42 271 -272 0
9 40 -42 -271 272 0
9 40 -42 -271 -272 0
-9 15 -42 273 274 0
-9 15 -42 273 -274 0
-9 15 -42 -273 274 0
-9 15 -42 -273 -274 0
-15 -42 43 275 276 0
-15 -42 43 275 -276 0
-15 -42 43 -275 276 0
-15 -42 43 -275 -276 0
-15 -42 -43 277 278 0
-15 -42 -43 277 -278 0
-15 -42 -43 -277 278 0
-15 -42 -43 -277 -278 0
12 40 -49 279 280 0
12 40 -49 279 -280 0
12 40 -49 -279 280 0
12 40 -49 -279 -280 0
12 19 42 281 282 0
12 19 42 281 -282 0
12 19 42 -281 282 0
12 19 42 -281 -282 0
-2 -19 40 283 284 0
-2 -19 40 283 -284 0
-2 -19 40 -283 284 0
-2 -19 40 -283 -284 0
-19 -31 40 285 286 0
-19 -31 40 285 -286 0
-19 -31 40 -285 286 0
-19 -31 40 -285 -286 0
3 -31 -33 287 288 0
3 -31 -33 287 -288 0
3 -31 -33 -287 288 0
3 -31 -33 -287 -288 0
-3 7 -31 289 290 0
-3 7 -31 289 -290 0
-3 7 -31 -289 290 0
-3 7 -31 -289 -290 0
-7 10 -31 291 292 0
-7 10 -31 291 -292 0
-7 10 -31 -291 292 0
-7 10 -31 -291 -292 0
-7 -10 -31 293 294 0
-7 -10 -31 293 -294 0
-7 -10 -31 -293 294 0
-7 -10 -31 -293 -294 0
17 23 42 295 296 0
17 23 42 295 -296 0
17 23 42 -295 296 0
17 23 42 -295 -296 0
23 42 49 297 298 0
23 42 49 297 -298 0
23 42 49 -297 298 0
23 42 49 -297 -298 0
2 -26 49 299 300 0
2 -26 49 299 -300 0
2 -26 49 -299 300 0
2 -26 49 -299 -300 0
3 26 31 301 302 0
3 26 31 301 -302 0
3 26 31 -301 302 0
3 26 31 -301 -302 0
-23 33 44 303 304 0
-23 33 44 303 -304 0
-23 33 44 -303 304 0
-23 33 44 -303 -304 0
17 -23 33 305 306 0
17 -23 33 305 -306 0
17 -23 33 -305 306 0
17 -23 33 -305 -306 0
4 28 41 307 308 0
4 28 41 307 -308 0
4 28 41 -307 308 0
4 28 41 -307 -308 0
28 33 -41 309 310 0
28 33 -41 309 -310 0
28 33 -41 -309 310 0
28 33 -41 -309 -310 0
14 17 -28 311 312 0
14 17 -28 311 -312 0
14 17 -28 -311 312 0
14 17 -28 -311 -312 0
1 14 -17 313 314 0
1 14 -17 313 -314 0
1 14 -17 -313 314 0
1 14 -17 -313 -314 0
-1 -17 26 315 316 0
-1 -17 26 315 -316 0
-1 -17 26 -315 316 0
-1 -17 26 -315 -316 0
4 12 -28 317 318 0
4 12 -28 317 -318 0
4 12 -28 -317 318 0
4 12 -28 -317 -318 0
-12 -14 -28 319 320 0
-12 -14 -28 319 -320 0
-12 -14 -28 -319 320 0
-12 -14 -28 -319 -320 0
-4 20 33 321 322 0
-4 20 33 321 -322 0
-4 20 33 -321 322 0
-4 20 33 -321 -322 0
-4 -20 33 323 324 0
-4 -20 33 323 -324 0
-4 -20 33 -323 324 0
-4 -20 33 -323 -324 0
30 40 42 325 326 0
30 40 42 325 -326 0
30 40 42 -325 326 0
30 40 42 -325 -326 0
7 31 -40 327 328 0
7 31 -40 327 -328 0
7 31 -40 -327 328 0
7 31 -40 -327 -328 0
31 -40 42 329 330 0
31 -40 42 329 -330 0
31 -40 42 -329 330 0
31 -40 42 -329 -330 0
26 -33 48 331 332 0
26 -33 48 331 -332 0
26 -33 48 -331 332 0
26 -33 48 -331 -332 0
-33 39 -48 333 334 0
-33 39 -48 333 -334 0
-33 39 -48 -333 334 0
-33 39 -48 -333 -334 0
-26 31 -33 335 336 0
-26 31 -33 335 -336 0
-26 31 -33 -335 336 0
-26 31 -33 -335 -336 0
-14 -26 -33 337 338 0
-14 -26 -33 337 -338 0
-14 -26 -33 -337 338 0
-14 -26 -33 -337 -338 0
31 -39 -42 339 340 0
31 -39 -42 339 -340 0
31 -39 -42 -339 340 0
31 -39 -42 -339 -340 0
3 12 23 341 342 0
3 12 23 341 -342 0
3 12 23 -341 342 0
3 12 23 -341 -342 0
3 23 -24 343 344 0
3 23 -24 343 -344 0
3 23 -24 -343 344 0
3 23 -24 -343 -344 0
3 -24 -30 345 346 0
3 -24 -30 345 -346 0
3 -24 -30 -345 346 0
3 -24 -30 -345 -346 0
-3 -23 -24 347 348 0
-3 -23 -24 347 -348 0
-3 -23 -24 -347 348 0
-3 -23 -24 -347 -348 0
1 10 25 349 350 0
1 10 25 349 -350 0
1 10 25 -349 350 0
1 10 25 -349 -350 0
1 -23 25 351 352 0
1 -23 25 351 -352 0
1 -23 25 -351 352 0
1 -23 25 -351 -352 0
-1 -12 36 353 354 0
-1 -12 36 353 -354 0
-1 -12 36 -353 354 0
-1 -12 36 -353 -354 0
-1 -3 -36 355 356 0
-1 -3 -36 355 -356 0
-1 -3 -36 -355 356 0
-1 -3 -36 -355 -356 0
-3 -13 -30 357 358 0
-3 -13 -30 357 -358 0
-3 -13 -30 -357 358 0
-3 -13 -30 -357 -358 0
6 13 24 359 360 0
6 13 24 359 -360 0
6 13 24 -359 360 0
6 13 24 -359 -360 0
-6 21 34 361 362 0
-6 21 34 361 -362 0
-6 21 34 -361 362 0
-6 21 34 -361 -362 0
-6 -21 34 363 364 0
-6 -21 34 363 -364 0
-6 -21 34 -363 364 0
-6 -21 34 -363 -364 0
-1 -6 -34 365 366 0
-1 -6 -34 365 -366 0
-1 -6 -34 -365 366 0
-1 -6 -34 -365 -366 0
13 -18 49 367 368 0
13 -18 49 367 -368 0
13 -18 49 -367 368 0
13 -18 49 -367 -368 0
13 47 -49 369 370 0
13 47 -49 369 -370 0
13 47 -49 -369 370 0
13 47 -49 -369 -370 0
13 -34 -47 371 372 0
13 -34 -47 371 -372 0
13 -34 -47 -371 372 0
13 -34 -47 -371 -372 0
8 -10 48 373 374 0
8 -10 48 373 -374 0
8 -10 48 -373 374 0
8 -10 48 -373 -374 0
1 -2 46 375 376 0
1 -2 46 375 -376 0
1 -2 46 -375 376 0
1 -2 46 -375 -376 0
6 -41 48 377 378 0
6 -41 48 377 -378 0
6 -41 48 -377 378 0
6 -41 48 -377 -378 0
-16 -22 -49 379 380 0
-16 -22 -49 379 -380 0
-16 -22 -49 -379 380 0
-16 -22 -49 -379 -380 0
-13 -22 -40 381 382 0
-13 -22 -40 381 -382 0
-13 -22 -40 -381 382 0
-13 -22 -40 -381 -382 0
-7 28 -49 383 384 0
-7 28 -49 383 -384 0
-7 28 -49 -383 384 0
-7 28 -49 -383 -384 0
-3 25 44 385 386 0
-3 25 44 385 -386 0
-3 25 44 -385 386 0
-3 25 44 -385 -386 0
-27 -44 387 388 389 0
-27 -44 387 388 -389 0
-27 -44 387 -388 389 0
-27 -44 387 -388 -389 0
-27 -44 -387 388 389 0
-27 -44 -387 388 -389 0
-27 -44 -387 -388 389 0
-27 -44 -387 -388 -389 0
-2 -16 390 391 392 0
-2 -16 390 391 -392 0
-2 -16 390 -391 392 0
-2 -16 390 -391 -392 0
-2 -16 -390 391 392 0
-2 -16 -390 391 -392 0
-2 -16 -390 -391 392 0
-2 -16 -390 -391 -392 0
